<number of tasks>
250

<cycle time>
1000

<order strength>
0.895


<task times>
1 574
2 456
3 673
4 623
5 461
6 574
7 523
8 496
9 767
10 716
11 481
12 712
13 586
14 470
15 622
16 520
17 534
18 814
19 520
20 937
21 296
22 377
23 429
24 637
25 297
26 837
27 443
28 693
29 508
30 496
31 754
32 324
33 636
34 451
35 552
36 381
37 593
38 316
39 681
40 545
41 380
42 423
43 554
44 819
45 799
46 620
47 656
48 646
49 331
50 434
51 492
52 512
53 311
54 404
55 468
56 713
57 433
58 327
59 378
60 426
61 508
62 326
63 685
64 556
65 521
66 563
67 241
68 545
69 563
70 453
71 454
72 843
73 282
74 652
75 400
76 705
77 413
78 303
79 679
80 514
81 668
82 344
83 774
84 349
85 696
86 663
87 557
88 460
89 517
90 393
91 496
92 494
93 539
94 661
95 539
96 397
97 545
98 469
99 476
100 483
101 381
102 513
103 301
104 576
105 602
106 397
107 383
108 603
109 518
110 495
111 726
112 626
113 838
114 500
115 476
116 781
117 609
118 566
119 581
120 669
121 213
122 456
123 325
124 206
125 745
126 512
127 495
128 564
129 415
130 522
131 560
132 491
133 612
134 439
135 264
136 533
137 638
138 444
139 610
140 550
141 154
142 448
143 486
144 652
145 693
146 462
147 411
148 618
149 324
150 348
151 598
152 586
153 376
154 475
155 585
156 571
157 388
158 617
159 546
160 548
161 381
162 547
163 445
164 589
165 529
166 378
167 381
168 660
169 344
170 600
171 594
172 421
173 425
174 441
175 314
176 481
177 568
178 411
179 443
180 422
181 506
182 426
183 322
184 598
185 556
186 679
187 638
188 475
189 492
190 392
191 520
192 564
193 512
194 674
195 530
196 503
197 478
198 644
199 556
200 356
201 495
202 636
203 372
204 537
205 413
206 397
207 783
208 587
209 482
210 365
211 706
212 576
213 524
214 578
215 553
216 365
217 511
218 609
219 546
220 668
221 524
222 389
223 559
224 908
225 371
226 657
227 401
228 499
229 646
230 409
231 447
232 283
233 400
234 767
235 491
236 516
237 346
238 491
239 436
240 475
241 448
242 245
243 198
244 317
245 408
246 574
247 429
248 391
249 443
250 467

<precedence relations>
1,26
1,43
2,6
2,8
2,9
2,10
2,11
3,6
3,7
3,9
3,10
3,11
4,6
4,7
4,8
4,11
5,6
5,7
5,8
5,9
5,10
5,11
6,12
6,13
6,14
6,15
6,17
7,12
7,15
7,16
7,17
8,12
8,13
8,14
8,15
8,16
8,17
9,13
9,14
9,22
10,12
10,13
10,17
11,12
11,13
12,18
12,19
12,20
12,21
12,22
13,18
13,19
13,20
14,18
14,19
15,18
15,22
16,18
16,22
17,21
17,22
18,23
18,24
18,25
19,23
19,24
19,25
20,23
20,24
20,25
21,29
22,23
22,24
22,25
23,26
23,27
23,30
24,26
24,27
24,28
24,29
24,30
25,26
25,27
25,28
25,29
25,30
26,76
26,77
26,78
26,79
27,31
27,32
27,33
27,34
27,35
28,31
28,32
28,33
28,34
28,35
29,31
29,32
29,33
29,34
29,35
30,31
30,32
30,33
30,34
30,35
31,36
31,37
31,38
32,37
32,38
33,36
33,37
33,38
33,39
34,36
34,37
34,38
34,39
35,36
35,37
35,38
35,39
36,40
36,41
36,45
36,46
37,40
37,45
37,49
38,40
38,42
38,43
39,40
39,41
39,42
39,43
39,44
39,45
40,50
40,52
41,47
41,49
41,51
42,47
42,48
42,50
42,51
42,52
43,47
43,48
43,49
43,50
43,51
44,47
44,48
44,49
44,50
44,51
44,52
45,47
45,50
45,51
45,52
46,47
46,48
46,49
47,53
47,54
47,55
47,59
48,53
48,54
49,53
49,54
50,53
50,54
50,55
50,56
51,53
51,54
51,55
51,56
52,53
52,54
52,55
52,56
53,57
53,58
53,60
53,65
54,57
55,57
55,58
55,60
55,61
55,62
56,57
56,59
56,61
57,66
57,74
58,63
59,63
59,64
59,65
59,66
60,63
61,63
61,64
61,66
62,63
62,64
62,65
62,66
63,67
63,68
63,69
63,70
63,71
63,72
64,67
64,68
64,69
64,70
64,71
64,72
65,67
65,68
66,149
67,76
67,83
68,73
68,74
68,75
68,76
69,73
69,74
69,76
69,82
70,73
70,77
70,78
70,79
71,73
71,74
72,73
72,74
72,75
72,76
72,77
72,78
73,80
74,80
74,81
74,83
75,80
75,84
76,80
76,81
76,84
77,80
77,81
77,82
77,83
77,84
78,80
78,81
78,82
78,83
78,84
79,80
79,81
79,82
79,83
79,84
80,85
80,86
80,87
81,85
81,86
81,87
82,85
82,86
82,87
83,85
83,86
83,87
84,85
84,86
84,87
85,88
85,90
85,91
85,93
86,88
86,89
86,91
86,92
86,93
87,88
87,89
87,90
87,91
87,92
87,93
88,94
88,95
88,96
89,94
89,95
89,96
90,94
90,95
90,96
91,94
91,95
91,96
92,94
93,94
93,95
93,96
94,97
94,98
94,99
94,100
94,101
95,97
95,98
95,99
95,100
95,101
96,97
96,98
96,99
96,100
96,101
97,102
97,103
98,102
98,106
99,102
99,103
99,104
99,105
99,107
100,102
100,103
100,104
100,111
101,102
101,105
101,114
102,131
102,141
103,108
103,109
104,108
105,115
106,108
106,109
106,110
106,111
107,108
107,109
107,110
108,112
108,113
108,114
109,114
109,115
110,127
110,128
110,130
111,112
111,115
112,116
113,117
114,117
114,118
115,116
115,117
115,118
116,119
116,120
117,119
117,120
118,119
118,120
119,121
119,122
119,125
119,154
119,164
120,121
120,122
120,123
120,124
120,125
121,155
121,160
121,181
122,166
123,127
124,128
125,126
125,148
126,130
127,223
127,236
128,129
128,131
129,132
129,135
129,136
130,135
130,153
131,133
131,134
131,137
132,160
132,164
133,138
133,139
133,142
133,153
134,138
134,140
135,141
135,159
136,138
136,139
137,240
138,145
139,143
140,143
140,144
141,163
142,156
143,146
143,148
143,151
144,149
144,150
144,151
145,146
145,147
146,155
146,158
147,152
147,154
148,155
148,186
149,152
149,153
149,156
150,152
150,155
150,156
151,152
152,157
152,158
152,159
152,160
152,161
153,157
153,158
153,159
154,157
155,171
155,177
156,157
156,158
156,160
157,162
158,205
158,213
159,202
160,163
160,186
161,164
161,167
161,182
161,212
162,165
162,166
162,167
162,168
162,170
163,169
163,179
163,197
164,178
165,171
165,184
165,193
165,197
166,171
166,172
166,174
168,173
168,174
169,178
169,207
170,171
171,175
171,178
171,179
171,196
172,175
172,177
173,175
173,178
173,208
174,175
174,176
175,180
175,183
175,201
176,181
176,185
177,182
177,184
177,188
178,180
178,209
179,222
179,232
179,238
180,185
180,218
181,186
182,216
184,187
185,189
185,214
185,236
186,188
186,191
187,190
188,192
188,193
188,194
190,194
191,192
191,193
192,197
193,195
193,196
194,195
195,198
196,198
196,199
197,198
197,199
198,200
198,201
198,202
199,200
199,201
199,202
200,204
200,205
200,230
200,232
201,203
201,204
201,212
202,206
203,207
203,211
203,229
203,240
204,215
205,246
206,208
206,209
207,210
207,220
207,232
207,237
208,211
208,212
209,210
209,213
210,233
211,215
211,217
211,220
212,214
212,218
212,221
213,216
213,219
214,220
214,222
214,223
215,225
215,241
217,228
218,224
219,221
219,225
221,227
221,229
222,240
222,248
223,229
224,226
224,227
224,228
225,238
226,230
226,249
227,233
228,232
228,236
228,237
228,250
229,231
229,238
230,236
230,237
230,240
231,235
231,237
231,239
231,249
232,246
232,247
233,234
233,238
233,239
234,241
235,243
236,243
238,242
241,244
242,245
244,246
244,248
244,249
244,250
245,246
245,247

<end>
